''Non self-consistent calculation file on full lattice''

&CONTROL
calculation = 'nscf', outdir = './', pseudo_dir = './', prefix = 'Cu18' ,
 /
 &SYSTEM
ibrav = 4, celldm(1) = 11.2152517460838d0, celldm(3) = 1.0294825232434137d0,
nat = 24, ntyp = 2,ecutwfc = 60, ecutrho = 120 ,input_dft = 'pbe' ,
occupations = 'smearing' , degauss = 0.005d0 , smearing = 'marzari-vanderbilt' ,
 /
 &ELECTRONS
  	conv_thr = 1d-06, mixing_beta = 0.7d0 ,
/
ATOMIC_SPECIES
Cu 63.54600 cu_pbe_v1.2.uspp.F.UPF
P 30.97380 p_pbe_v1.5.uspp.F.UPF
ATOMIC_POSITIONS {angstrom}
Cu 0.06 0.15 -0.12
…
K_POINTS automatic
 2 2 2  0 0 0

''Band Calculation file on full lattice''

&CONTROL
calculation = ‘bands’, outdir = './', pseudo_dir = './', prefix = 'Cu18' ,
 /
 &SYSTEM
ibrav = 4, celldm(1) = 11.2152517460838d0, celldm(3) = 1.0294825232434137d0,
nat = 24, ntyp = 2,ecutwfc = 60, ecutrho = 120 ,input_dft = 'pbe' ,
occupations = 'smearing' , degauss = 0.005d0 , smearing = 'marzari-vanderbilt', 
nbnd=180
 /
 &ELECTRONS
  	conv_thr = 1d-06, mixing_beta = 0.7d0 ,
/
ATOMIC_SPECIES
Cu 63.54600 cu_pbe_v1.2.uspp.F.UPF
P 30.97380 p_pbe_v1.5.uspp.F.UPF
ATOMIC_POSITIONS {angstrom}
Cu 0.06 0.15 -0.12
…
K_POINTS crystal_b 
          78 
